43
75
52	3
51	2
50	1
49	4
48	2
47	5
46	1
45	1
44	2
43	1
42	1
41	2
39	3
38	4
37	2
35	1
34	1
33	2
32	2
31	2
30	1
29	1
28	2
26	4
25	2
24	6
23	5
22	1
21	2
20	2
19	3
18	1
17	3
16	3
15	5
14	2
13	2
12	1
11	2
10	3
9	1
8	3
7	3
